Welcome to the CBC MILP Solver 
Version: 2.10.12 
Build Date: Aug 20 2024 

command line - /opt/homebrew/bin/cbc computational_data/lp/ER_n20_p020_s4.lp seconds 10.0 solve solu computational_data/solutions/ER_n20_p020_s4.sol (default strategy 1)
seconds was changed from 1e+100 to 10
Continuous objective value is 6.56203 - 0.00 seconds
Cgl0003I 0 fixed, 0 tightened bounds, 14 strengthened rows, 0 substitutions
Cgl0003I 0 fixed, 0 tightened bounds, 16 strengthened rows, 0 substitutions
Cgl0003I 0 fixed, 0 tightened bounds, 12 strengthened rows, 0 substitutions
Cgl0004I processed model has 124 rows, 40 columns (40 integer (40 of which binary)) and 474 elements
Cutoff increment increased from 1e-05 to 0.9999
Cbc0038I Initial state - 30 integers unsatisfied sum - 6.56203
Cbc0038I Pass   1: suminf.    6.57534 (30) obj. 6.57534 iterations 3
Cbc0038I Pass   2: suminf.    8.66667 (26) obj. 12 iterations 48
Cbc0038I Pass   3: suminf.    0.00000 (0) obj. 13 iterations 33
Cbc0038I Solution found of 13
Cbc0038I Before mini branch and bound, 7 integers at bound fixed and 0 continuous
Cbc0038I Full problem 124 rows 40 columns, reduced to 109 rows 33 columns
Cbc0038I Mini branch and bound improved solution from 13 to 9 (0.01 seconds)
Cbc0038I Round again with cutoff of 7.85629
Cbc0038I Pass   4: suminf.    6.57534 (30) obj. 6.57534 iterations 0
Cbc0038I Pass   5: suminf.    6.28147 (18) obj. 7.85629 iterations 30
Cbc0038I Pass   6: suminf.    4.85843 (23) obj. 7.85629 iterations 30
Cbc0038I Pass   7: suminf.    4.78578 (23) obj. 7.85629 iterations 5
Cbc0038I Pass   8: suminf.    7.14371 (17) obj. 7.85629 iterations 39
Cbc0038I Pass   9: suminf.    5.14371 (12) obj. 7.85629 iterations 24
Cbc0038I Pass  10: suminf.    4.96407 (18) obj. 7.85629 iterations 21
Cbc0038I Pass  11: suminf.    4.09613 (20) obj. 7.85629 iterations 15
Cbc0038I Pass  12: suminf.    5.14371 (22) obj. 7.85629 iterations 35
Cbc0038I Pass  13: suminf.    4.72206 (24) obj. 7.85629 iterations 16
Cbc0038I Pass  14: suminf.    4.60705 (25) obj. 7.85629 iterations 5
Cbc0038I Pass  15: suminf.    7.08297 (20) obj. 7.85629 iterations 42
Cbc0038I Pass  16: suminf.    3.72766 (24) obj. 7.85629 iterations 21
Cbc0038I Pass  17: suminf.    3.15351 (25) obj. 7.85629 iterations 19
Cbc0038I Pass  18: suminf.    5.99632 (23) obj. 7.85629 iterations 34
Cbc0038I Pass  19: suminf.    4.28702 (19) obj. 7.85629 iterations 29
Cbc0038I Pass  20: suminf.    5.68622 (19) obj. 7.85629 iterations 22
Cbc0038I Pass  21: suminf.    3.60799 (21) obj. 7.85629 iterations 14
Cbc0038I Pass  22: suminf.    3.43112 (17) obj. 7.85629 iterations 9
Cbc0038I Pass  23: suminf.    3.43112 (17) obj. 7.85629 iterations 5
Cbc0038I Pass  24: suminf.    6.56888 (22) obj. 7.85629 iterations 39
Cbc0038I Pass  25: suminf.    5.50000 (18) obj. 7.85629 iterations 37
Cbc0038I Pass  26: suminf.    5.24149 (16) obj. 7.85629 iterations 44
Cbc0038I Pass  27: suminf.    3.31906 (23) obj. 7.85629 iterations 23
Cbc0038I Pass  28: suminf.    3.23538 (21) obj. 7.85629 iterations 8
Cbc0038I Pass  29: suminf.    6.14371 (23) obj. 7.85629 iterations 36
Cbc0038I Pass  30: suminf.    4.95624 (23) obj. 7.85629 iterations 18
Cbc0038I Pass  31: suminf.    5.99136 (22) obj. 7.85629 iterations 36
Cbc0038I Pass  32: suminf.    5.05714 (20) obj. 7.77143 iterations 24
Cbc0038I Pass  33: suminf.    4.57185 (19) obj. 7.85629 iterations 23
Cbc0038I No solution found this major pass
Cbc0038I Before mini branch and bound, 0 integers at bound fixed and 0 continuous
Cbc0038I Full problem 124 rows 40 columns, reduced to 124 rows 40 columns
Cbc0038I Mini branch and bound did not improve solution (0.04 seconds)
Cbc0038I After 0.04 seconds - Feasibility pump exiting with objective of 9 - took 0.04 seconds
Cbc0012I Integer solution of 9 found by feasibility pump after 0 iterations and 0 nodes (0.04 seconds)
Cbc0038I Full problem 124 rows 40 columns, reduced to 99 rows 30 columns
Cbc0031I 6 added rows had average density of 17.166667
Cbc0013I At root node, 6 cuts changed objective from 6.5620329 to 7.9999788 in 100 passes
Cbc0014I Cut generator 0 (Probing) - 0 row cuts average 0.0 elements, 0 column cuts (0 active)  in 0.011 seconds - new frequency is -100
Cbc0014I Cut generator 1 (Gomory) - 1237 row cuts average 39.9 elements, 0 column cuts (0 active)  in 0.019 seconds - new frequency is 1
Cbc0014I Cut generator 2 (Knapsack) - 0 row cuts average 0.0 elements, 0 column cuts (0 active)  in 0.012 seconds - new frequency is -100
Cbc0014I Cut generator 3 (Clique) - 0 row cuts average 0.0 elements, 0 column cuts (0 active)  in 0.003 seconds - new frequency is -100
Cbc0014I Cut generator 4 (MixedIntegerRounding2) - 0 row cuts average 0.0 elements, 0 column cuts (0 active)  in 0.012 seconds - new frequency is -100
Cbc0014I Cut generator 5 (FlowCover) - 0 row cuts average 0.0 elements, 0 column cuts (0 active)  in 0.001 seconds - new frequency is -100
Cbc0014I Cut generator 7 (ZeroHalf) - 176 row cuts average 8.1 elements, 0 column cuts (0 active)  in 0.133 seconds - new frequency is 1
Cbc0010I After 0 nodes, 1 on tree, 9 best solution, best possible 7.9999788 (0.30 seconds)
Cbc0001I Search completed - best objective 9, took 5590 iterations and 18 nodes (0.44 seconds)
Cbc0032I Strong branching done 380 times (5744 iterations), fathomed 5 nodes and fixed 4 variables
Cbc0035I Maximum depth 6, 6 variables fixed on reduced cost
Cuts at root node changed objective from 6.56203 to 7.99998
Probing was tried 100 times and created 0 cuts of which 0 were active after adding rounds of cuts (0.011 seconds)
Gomory was tried 158 times and created 1595 cuts of which 0 were active after adding rounds of cuts (0.025 seconds)
Knapsack was tried 100 times and created 0 cuts of which 0 were active after adding rounds of cuts (0.012 seconds)
Clique was tried 100 times and created 0 cuts of which 0 were active after adding rounds of cuts (0.003 seconds)
MixedIntegerRounding2 was tried 100 times and created 0 cuts of which 0 were active after adding rounds of cuts (0.012 seconds)
FlowCover was tried 100 times and created 0 cuts of which 0 were active after adding rounds of cuts (0.001 seconds)
TwoMirCuts was tried 1 times and created 0 cuts of which 0 were active after adding rounds of cuts (0.000 seconds)
ZeroHalf was tried 158 times and created 426 cuts of which 0 were active after adding rounds of cuts (0.203 seconds)

Result - Optimal solution found

Objective value:                9.00000000
Enumerated nodes:               18
Total iterations:               5590
Time (CPU seconds):             0.44
Time (Wallclock seconds):       0.48

Total time (CPU seconds):       0.44   (Wallclock seconds):       0.48

